PRECURSOR_MZ: 454.2928158300899
SMILES: CCCCCCCCCCCCCCCC(=O)OC[C@@H](O)COP(=O)(O)OCCN
INSTRUMENT_TYPE: Orbitrap
NCE: 0.1018
COMPOUND_NAME: 1035370
ADDUCT: [M+H]+
IONMODE: positive
CHARGE: 1
NUM PEAKS: 23
62.061137456            0.007607827543729083
71.086623932            0.008850161198760215
81.070973868            0.0026014177628816888
85.102273996            0.003632178452575347
95.086623932            0.0024356472524304654
98.985268818            0.03977010450441241
111.99309385            0.0021589167110185447
120.021988674           0.0032018192978652163
138.03255335799997      0.0055837366181625304
142.02746797799998      0.0046395146520265915
143.03529300999998      0.0028133533553489016
155.01148356599998      0.005774029890123816
164.011817914           0.006698832154846771
313.274818624           1.0
314.28264365599995      0.16383057591120617
315.290468688           0.0019950222866559476
393.241149146           0.004998851246146537
395.25679920999994      0.0025142923167769788
433.236063766           0.03571683283518416
434.243888798           0.058080805776061825
436.283348306           0.10813637166083159
437.291173338           0.0058260493630540025
454.29391299            0.1565019810360842

PRECURSOR_MZ: 170.09240304409
SMILES: Cn1cnc(CC(N)C(=O)O)c1
INSTRUMENT_TYPE: QTOF
NCE: 0.49973
COMPOUND_NAME: 1057281
ADDUCT: [M+H]+
IONMODE: positive
CHARGE: 1
NUM PEAKS: 25
41.03967374 0.007342307439044301
42.034922707999996      0.010650532620406467
54.034922707999996      0.002406746296845188
55.055323804            0.0020263908426777686
56.050572771999995      0.034348399144835215
69.070973868            0.0019496728177297547
70.066222836            0.006454419184395509
81.04582174 0.0057181159459210994
82.053646772            0.002670930732528291
82.066222836            0.007626881076306861
83.06147180399999       0.0816073230769001
95.06147180399999       0.008380901182648066
96.06929683599999       0.01819017509718679
97.07712186799999       0.14209972980931715
107.06147180399999      0.0242808170075508
109.07712186799999      0.05967002647827748
111.056386424           0.001971356242823055
124.08802089999999      1.0
125.072036488           0.004397233440973069
125.09584593199999      0.0017172516312065913
126.10367096399999      0.005455211127599632
141.07952717199998      0.0025596663942835086
142.09858558399998      0.0038399041226272793
153.06695110799998      0.023136934618379026
170.09350020399998      0.08906176628881075

PRECURSOR_MZ: 188.07060498009
SMILES: O=C(O)/C=C/c1c[nH]c2ccccc12
INSTRUMENT_TYPE: QTOF
NCE: 0.66464
COMPOUND_NAME: 1057332
ADDUCT: [M+H]+
IONMODE: positive
CHARGE: 1
NUM PEAKS: 34
87.024023676            0.0020608120641205357
89.03967374 0.0263926368550498
90.047498772            0.001979007821347169
91.055323804            0.011722511358762018
102.047498772           0.010787518620287725
103.055323804           0.0081841002547958
104.063148836           0.0022320209433522096
113.03967374            0.0036621810900882333
115.055323804           1.0
116.050572772           0.03017607730446152
116.063148836           0.00461469948633542
117.058397804           0.0019385947682282636
118.066222836           0.011483127175165742
127.04274774            0.0059971877114790755
127.055323804           0.00726277248147514
128.05057277199998      0.004549849679594041
129.05839780399998      0.010660386276809297
130.06622283599998      0.008087649370132883
131.07404786799998      0.0022057162134206175
132.08187289999998      0.0022389645257462963
140.05057277199998      0.003753860617650311
142.06622283599998      0.12921384697243532
142.07879889999998      0.0029850055255114067
143.05023842399999      0.0020528834730372475
143.07404786799998      0.0030417728465772526
144.05806345599999      0.002483420566980098
144.08187289999998      0.00907668909806477
145.06588848799998      0.002415049926854296
146.06113745599998      0.006602002413626975
152.05057277199998      0.003550189975314758
160.07678751999998      0.009042305630905087
170.06113745599998      0.325967636884371
171.06896248799998      0.007767504469881968
188.07170213999999      0.006282775674752526

PRECURSOR_MZ: 414.26484779199996
SMILES: CCCCCCCCCCCCCCCCCC(O)=NCCS(=O)(=O)O
INSTRUMENT_TYPE: QTOF
NCE: 0.44841
COMPOUND_NAME: 1107695
ADDUCT: [M+Na]+
IONMODE: positive
CHARGE: 1
NUM PEAKS: 57
47.0365652  0.012429082414713456
48.998071515999996      0.0038710902396964803
55.054226643999996      0.007705728647270136
57.069876707999995      0.08937204049023936
66.03114547199999       0.004696216757688282
67.054226644            0.01904707007133077
69.069876708            0.084894505312271
71.085526772            0.23173490860115054
79.02639443999999       0.005539459243082619
81.069876708            0.05627411027024121
83.085526772            0.11485954584060723
85.101176836            0.05242089859288127
91.02639443999999       0.008124090997711947
93.042044504            0.008142388695541099
95.085526772            0.0704375760536583
97.101176836            0.04332497350027228
99.11682689999999       0.003722428798088882
107.98756640799999      0.005261816119341776
109.019200884           0.010032085399714497
109.101176836           0.04649784808764967
111.11682689999999      0.008187356296402536
123.11682689999999      0.01940873112804803
125.014115504           0.1204344610750934
137.132476964           0.0053780423564252595
178.089626172           0.00326062727320603
190.162397188           0.005384480305604048
192.105276236           0.00792697476195065
193.113101268           0.003214547230022119
204.178047252           0.011201338264262232
206.1209263 0.011106645857190558
208.172961872           0.0055025319005178935
212.095105476           0.003765745418292319
218.193697316           0.013078000800034063
220.136576364           0.009243550425676388
222.188611936           0.008654456716364394
226.11075553999999      0.0038818203884311044
232.20934738            0.008264253828174197
234.152226428           0.005956365649181702
236.204262  0.007390356676250642
240.12640560399998      0.003043668105756884
242.211455556           0.004154760930997622
252.19917662            0.0037294893227946962
256.22710562            0.00444874228538582
292.15770573199995      0.0043898175076361795
306.173355796           0.005620000487415711
314.263788256           0.02840872776656037
320.18900585999995      0.005735943799287813
339.25903722400005      0.0069179086896697
357.269601908           0.006540231544872498
358.25361749599995      0.006868807859606347
371.248866464           0.006546834066884641
373.26451652800006      0.021055756435568125
374.27234156            0.28909942384101506
375.280166592           0.029012680651949323
376.25160611600006      0.009480572422131139
377.2594311480001       0.004552352439095446
392.28290624400006      1.0

PRECURSOR_MZ: 302.10994492809004
SMILES: OC(Cn1cncn1)(c1ccc(F)cc1)c1ccccc1F
INSTRUMENT_TYPE: Orbitrap
NCE: 0.35
COMPOUND_NAME: 1147261
ADDUCT: [M+H]+
IONMODE: positive
CHARGE: 1
NUM PEAKS: 10
70.04107070799999       1.0
82.04107070799999       0.0012459450697547478
123.023823864           0.04434956011024122
151.03131454799998      0.002215168774997621
151.06770005599998      0.0034365364477176186
206.07351370799998      0.0037895047002111247
213.07211673999998      0.0012295718357641365
215.06778030799998      0.005670355607075945
233.07834499199998      0.00787380461596554
284.100477404           0.012740530727906875

PRECURSOR_MZ: 184.09681972809
SMILES: CNC[C@H](O)c1ccc(O)c(O)c1
INSTRUMENT_TYPE: Orbitrap
NCE: 0.02
COMPOUND_NAME: 1147852
ADDUCT: [M+H]+
IONMODE: positive
CHARGE: 1
NUM PEAKS: 16
79.055323804            0.003152989208856148
89.03967374 0.0012164814820092651
104.050572772           0.001405517046529225
105.058397804           0.0026569283741152846
107.050238424           0.021063866095608546
120.0818729 0.0017453533425810543
123.045153044           0.004082923935940121
134.06113745599998      0.0036144252510091584
135.045153044           0.007658050638091058
148.07678751999998      0.024225581138660083
149.060803108           0.005932616703982035
150.056052076           0.00435618224895231
151.06387710799999      0.008234737906289978
166.08735220399998      1.0
167.071367792           0.002840648588782486
167.09517723599998      0.006610439870289478

PRECURSOR_MZ: 430.27405581209007
SMILES: CC#C[C@]1(O)CC[C@H]2[C@@H]3CCC4=CC(=O)CCC4=C3[C@@H](c3ccc(N(C)C)cc3)C[C@@]21C
INSTRUMENT_TYPE: Orbitrap
NCE: 1.25
COMPOUND_NAME: 1212350
ADDUCT: [M+H]+
IONMODE: positive
CHARGE: 1
NUM PEAKS: 45
49.008373612            0.004477823867373431
57.058397803999995      0.005774251920845856
63.024023676            0.012211186889793169
65.03967374 0.017559133294786537
67.04274774 0.015298493475399754
67.055323804            0.009407429138773502
70.066222836            0.019781136413951142
77.03967374 0.012609852732372917
79.04274774 0.009891698314836293
79.055323804            0.01919494449746576
80.050572772            0.04066527384374183
81.058397804            0.028919750431722853
81.070973868            0.009615904273501745
82.066222836            0.037790403428295205
83.074047868            0.08465715621157523
84.0818729  0.014585814101305031
91.055323804            0.038601009083886695
92.050572772            0.09074970987469534
93.070973868            0.006755215063530718
94.066222836            0.04540145502946686
95.074047868            0.02402604490363194
96.0818729  0.1141065233037451
104.050572772           0.01615366926647693
105.070973868           0.05432675958955018
106.066222836           0.023338176735203824
107.086623932           0.026140035393344783
108.0818729 0.23374613833238922
109.08969793199999      0.009145564894504958
110.09752296399999      0.00695225923350667
117.070973868           0.014864443006154372
118.066222836           0.009735323760050084
119.086623932           0.0081345090015802
120.0818729 0.05504422113534983
121.08969793199999      0.01889864074503417
121.102273996           0.08334438907144431
122.09752296399999      1.0
131.07404786799998      0.007608250685172047
131.08662393199998      0.007777077582124067
132.08187289999998      0.29991924742204246
133.08969793199998      0.008390577076624902
134.09752296399998      0.8805278888992015
145.08969793199998      0.00654246696982539
146.09752296399998      0.139121160193113
147.10534799599998      0.013091855296805606
148.11317302799998      0.2783896191466253

PRECURSOR_MZ: 345.13326481209003
SMILES: COc1ccc(O)c(C(=O)/C=C/c2cc(OC)c(OC)cc2OC)c1
INSTRUMENT_TYPE: Orbitrap
NCE: 0.35
COMPOUND_NAME: 1225981
ADDUCT: [M+H]+
IONMODE: positive
CHARGE: 1
NUM PEAKS: 50
91.018938296            0.005734326119598676
93.03458836 0.008224805552803954
93.070973868            0.007935808134662376
95.050238424            0.015517377397217418
96.058063456            0.005776135635318584
97.065888488            0.027847203177823115
103.055323804           0.00707352997126429
105.03458836            0.008274867362652597
105.070973868           0.010458257867727083
107.013852916           0.015525664320568002
107.050238424           0.012017376851179833
109.02950298            0.015970239289408526
109.065888488           0.040934394130185896
115.055323804           0.02079224400505335
119.050238424           0.010223575129375577
121.02950298            0.012946149644876427
121.065888488           0.009707460203174803
123.045153044           0.12379682224112583
124.052978076           0.01664488277825722
125.02441759999999      0.008793291907388942
125.060803108           0.016449195554945707
131.05023842399999      0.015033759737295536
133.06588848799998      0.0489782263658552
137.060803108           0.16001523830300768
138.06862814            0.006295280367494858
139.040067664           0.0876738824569944
140.04789269599996      0.01931293784987358
141.055717728           0.01862703032834075
142.06354275999996      0.004632718377775011
145.06588848799998      0.0162716871674872
149.0244176 0.005929260031866753
149.060803108           0.06330593541570226
151.040067664           1.0
153.055717728           0.10161547467946629
159.045153044           0.04350015648794792
161.060803108           0.1676000486599788
162.06862814            0.013087659199666929
163.040067664           0.038629264344760675
164.04789269599996      0.010925622879527277
165.055717728           0.039463838628805835
177.055717728           0.610144285654038
178.06354275999996      0.03340693879830875
179.071367792           0.009227008356751921
189.055717728           0.018507586614087742
190.06354275999996      0.008412828175012627
193.087017856           0.011334768641305596
194.09484288799996      0.0051523418965838215
221.08193247599996      0.7013657492078922
327.123797288           0.009155626991190293
345.13436197199997      0.008990956509455379

PRECURSOR_MZ: 117.09100607609
SMILES: CCCCCC(=O)O
INSTRUMENT_TYPE: Orbitrap
NCE: 0.3
COMPOUND_NAME: 1343376
ADDUCT: [M+H]+
IONMODE: positive
CHARGE: 1
NUM PEAKS: 38
15.024023676            0.02825389846069648
17.039673739999998      0.005627132022871743
19.018938295999998      0.006107754531024024
25.008373612            0.0053672325277568985
27.024023676            0.02738603880554468
29.003288232            0.008337080056129162
29.039673739999998      0.17184064776307453
32.998202852            0.007453651221104732
39.024023676            0.012415043081887055
41.03967374 0.046329829593013856
43.018938296            0.23078219533057653
44.998202852            0.006440590250535234
45.03458836 0.05750649043707223
47.013852916            0.05516935080237787
49.02950298 0.009269692318563696
53.03967374 0.03814608184364399
55.055323804            0.1285419474812688
57.03458836 0.04112777017072243
57.070973867999996      0.012227968368357224
59.013852916            0.011649256993286386
59.050238424            0.013657682435109382
61.02950298 1.0
61.065888488            0.009169655678953394
63.045153044            0.007672198622813883
69.070973868            0.016231669000263658
71.050238424            0.021552351246592015
71.086623932            0.039941626131588366
73.02950298 0.022327317127214454
75.045153044            0.40870701570666623
81.070973868            0.9828695280097591
82.0787989  0.010607427680093045
89.060803108            0.11814425888690096
97.065888488            0.1260024828034378
99.081538552            0.5348211567775581
100.089363584           0.0069441223050678786
101.060803108           0.013957481552321963
103.076453172           0.01706340756374929
117.092103236           0.7688064116739366

PRECURSOR_MZ: 418.33157068809
SMILES: CCCCCCCC/C=C\CCCCCCCC(O)=NCCc1ccc(O)c(O)c1
INSTRUMENT_TYPE: Orbitrap
NCE: 0.35
COMPOUND_NAME: 1392310
ADDUCT: [M+H]+
IONMODE: positive
CHARGE: 1
NUM PEAKS: 28
12.00054858 0.0026548227173191523
13.008373612            0.0019777231032027487
25.008373612            0.00371638078843496
39.024023676            0.0015729250854929037
67.055323804            0.004267569621899603
69.070973868            0.002452218417866997
71.013852916            0.005083673675655445
71.086623932            0.001738385849998218
81.070973868            0.010462758085210763
83.086623932            0.0013671956236309811
91.055323804            0.007964053642508165
93.070973868            0.0033140215884515972
95.086623932            0.0030314747891971496
101.03967374            0.0029832012512853
103.055323804           0.0026299457080237224
107.050238424           0.00909445516510929
109.065888488           0.002783858660380681
109.102273996           0.001955778300440009
111.045153044           0.0062431818380887846
119.050238424           0.03791701649294822
123.045153044           0.004070733886095061
135.045153044           0.021464509815342404
137.060803108           1.0
151.06387710799999      0.0019401612876819823
282.28023835199997      0.004127060032140842
382.31153847999997      0.00150322983123101
400.322103164           0.024515216397388927
418.33266784799997      0.009561167978441474

